GLPSOL--GLPK LP/MIP Solver 5.0
Parameter(s) specified in the command line:
 --lp ../modeles/2_24.lp --log 2_24.log
Reading problem data from '../modeles/2_24.lp'...
57 rows, 100 columns, 342 non-zeros
48 integer variables, all of which are binary
165 lines were read
GLPK Integer Optimizer 5.0
57 rows, 100 columns, 342 non-zeros
48 integer variables, all of which are binary
Preprocessing...
44 constraint coefficient(s) were reduced
57 rows, 98 columns, 340 non-zeros
48 integer variables, all of which are binary
Scaling...
 A: min|aij| =  2.778e-02  max|aij| =  4.000e+00  ratio =  1.440e+02
GM: min|aij| =  2.887e-01  max|aij| =  3.464e+00  ratio =  1.200e+01
EQ: min|aij| =  8.333e-02  max|aij| =  1.000e+00  ratio =  1.200e+01
2N: min|aij| =  5.556e-02  max|aij| =  1.440e+00  ratio =  2.592e+01
Constructing initial basis...
Size of triangular part is 57
Solving LP relaxation...
GLPK Simplex Optimizer 5.0
57 rows, 98 columns, 340 non-zeros
      0: obj =   4.000000000e+00 inf =   9.500e+00 (5)
     11: obj =  -7.067137809e-03 inf =   0.000e+00 (0)
*    43: obj =  -1.407407407e+00 inf =   0.000e+00 (0)
OPTIMAL LP SOLUTION FOUND
Integer optimization begins...
Long-step dual simplex will be used
+    43: mip =     not found yet >=              -inf        (1; 0)
+    44: >>>>>  -1.407407407e+00 >=  -1.407407407e+00 < 0.1% (2; 0)
+    44: mip =  -1.407407407e+00 >=     tree is empty   0.0% (0; 3)
INTEGER OPTIMAL SOLUTION FOUND
Time used:   0.0 secs
Memory used: 0.2 Mb (183156 bytes)
